RT is False
Default write of storage_offers_DA.csv just to have a file (but constraint should be inactive)
Reading model...
...model read.
creating competitive generators file...
...competitive generators recorded.
Loading data...
.. day-ahead data with real-time VRE data read.
Compiling instance...
...instance created.
Creating Offer Mitigation (model will solve as dispatch if TRUE)...
NOTE: storage offers will not be mitigated
...storage offer mitigation file created
Converting model to MPEC...
...converted
NOTE: initial MIP solve with only storage competitive to get feasible solution
Solving...

Welcome to IBM(R) ILOG(R) CPLEX(R) Interactive Optimizer 12.9.0.0
  with Simplex, Mixed Integer & Barrier Optimizers
5725-A06 5725-A29 5724-Y48 5724-Y49 5724-Y54 5724-Y55 5655-Y21
Copyright IBM Corp. 1988, 2019.  All Rights Reserved.

Type 'help' for a list of available commands.
Type 'help' followed by a command name for more
information on commands.

CPLEX> Logfile 'cplex.log' closed.
Logfile 'C:\Users\Luke\Desktop\test919\logs\tmpf1_agfnz.cplex.log' open.
CPLEX> New value for parallel optimization mode: -1
CPLEX> New value for mixed integer optimality gap tolerance: 0.01
CPLEX> New value for integrality tolerance: 1e-09
CPLEX> New value for feasibility tolerance: 0.01
CPLEX> New value for deterministic time limit in ticks: 75000
CPLEX> Problem 'C:\Users\Luke\Desktop\test919\logs\tmpu9gcqbk3.pyomo.lp' read.
Read time = 0.20 sec. (14.73 ticks)
CPLEX> Problem name         : C:\Users\Luke\Desktop\test919\logs\tmpu9gcqbk3.pyomo.lp
Objective sense      : Maximize
Variables            :   53805  [Nneg: 1,  Box: 22000,  Free: 4464,
                                 Binary: 27340]
Objective nonzeros   :    9080
Linear constraints   :  123205  [Less: 41346,  Greater: 59096,  Equal: 22763]
  Nonzeros           :  291707
  RHS nonzeros       :   67493

Variables            : Min LB: -5000.000        Max UB: 1000000.       
Objective nonzeros   : Min   : 0.01666667       Max   : 2500.000       
Linear constraints   :
  Nonzeros           : Min   : 0.01666667       Max   : 1000000.       
  RHS nonzeros       : Min   : 0.01666667       Max   : 1000000.       
CPLEX> CPXPARAM_Parallel                                -1
CPXPARAM_Simplex_Tolerances_Feasibility          0.01
CPXPARAM_DetTimeLimit                            75000
CPXPARAM_MIP_Tolerances_MIPGap                   0.01
CPXPARAM_MIP_Tolerances_Integrality              1.0000000000000001e-09
Tried aggregator 3 times.
MIP Presolve eliminated 88781 rows and 19130 columns.
MIP Presolve added 3343 rows and 0 columns.
MIP Presolve modified 24710 coefficients.
Aggregator did 12921 substitutions.
Reduced MIP has 24846 rows, 21199 columns, and 70818 nonzeros.
Reduced MIP has 8380 binaries, 0 generals, 0 SOSs, and 0 indicators.
Presolve time = 0.25 sec. (175.82 ticks)
Probing fixed 413 vars, tightened 2930 bounds.
Probing time = 1.44 sec. (891.11 ticks)
Tried aggregator 2 times.
MIP Presolve eliminated 933 rows and 826 columns.
MIP Presolve modified 2237 coefficients.
Aggregator did 37 substitutions.
Reduced MIP has 23876 rows, 20336 columns, and 68015 nonzeros.
Reduced MIP has 7967 binaries, 0 generals, 0 SOSs, and 0 indicators.
Presolve time = 0.09 sec. (66.94 ticks)
Probing time = 0.03 sec. (16.27 ticks)
Clique table members: 6166.
MIP emphasis: balance optimality and feasibility.
MIP search method: dynamic search.
Parallel mode: opportunistic, using up to 24 threads.
Root relaxation solution time = 0.48 sec. (637.87 ticks)

        Nodes                                         Cuts/
   Node  Left     Objective  IInf  Best Integer    Best Bound    ItCnt     Gap

      0     0      -23.3456   882                    -23.3456     4628         
      0     0      -23.4052     8                    Cuts: 11     4631         
      0     0      -23.4052     6                 Flowcuts: 5     4634         
      0     0      -23.4052     5                 Flowcuts: 2     4635         
      0     2      -23.4052     5                     Cuts: 2     4635         
Elapsed time = 8.41 sec. (5027.65 ticks, tree = 0.02 MB, solutions = 1)
*    21+   19                         -977.7196      -77.3343            92.09%
    229    37     -316.8927     3     -977.7196      -77.3343     6063   92.09%
    451    87     -405.9019     4     -977.7196      -77.3535     6334   92.09%
*   566   165      integral     0     -897.6964      -77.3535     6785   91.38%
*   581   213      integral     0     -756.0761      -77.3535     6967   89.77%
    744   283     -190.8665     2     -756.0761      -77.3535     7186   89.77%
    919   276      -77.3343     1     -756.0761      -77.3535     7338   89.77%
   1041   371        cutoff           -756.0761      -77.3535     7809   89.77%
   1152   332     -285.5343     1     -756.0761      -77.3535     7680   89.77%
   1272   379     -252.1614     1     -756.0761      -77.3535     7858   89.77%
   1610   532        cutoff           -756.0761      -77.3535     8490   89.77%
Elapsed time = 13.33 sec. (7895.91 ticks, tree = 2.20 MB, solutions = 3)
   1834   584     -264.0897     1     -756.0761      -77.3535     8715   89.77%
   2031   624      -77.3343     1     -756.0761      -77.3535     8863   89.77%
   2253   637     -252.1614     3     -756.0761      -77.3535     9020   89.77%
   2651   799     -637.5942     4     -756.0761      -77.3535     9688   89.77%
   2950   818     -278.0838     2     -756.0761      -77.3535     9974   89.77%
   3201  1037     -308.4554     3     -756.0761      -77.3535    10832   89.77%
   3481  1071        cutoff           -756.0761      -77.3535    10974   89.77%
   3837  1261      -98.7302     3     -756.0761      -77.3535    12417   89.77%
   4169  1629     -564.5295     2     -756.0761      -77.3535    14638   89.77%
   4498  1712     -113.4566     4     -756.0761      -77.3535    15568   89.77%
Elapsed time = 24.14 sec. (17456.74 ticks, tree = 10.33 MB, solutions = 3)
   4895  1799     -159.8918     4     -574.5841      -77.3535    15946   86.54%
   5327  1918     -288.6187     5     -494.6227      -77.3535    16438   84.36%
   5803  2094        cutoff           -494.6227      -77.3535    20069   84.36%
   6139  1856      -77.3343     5     -494.6227      -77.3535    18624   84.36%
   6570  1894      -80.4187     4     -494.6227      -77.3535    18978   84.36%
   6954  2117      -80.4187     5     -494.6227      -77.3535    20186   84.36%
   7374  2590     -460.0638     2     -494.6227      -77.3535    22176   84.36%
   7639  2875        cutoff           -494.6227      -77.3535    22954   84.36%
   7780  2915    infeasible           -494.6227      -77.3535    23119   84.36%
   7843  2895     -316.9353     1     -494.6227      -77.3535    23113   84.36%
Elapsed time = 33.05 sec. (27073.40 ticks, tree = 20.77 MB, solutions = 6)
   7872  3128      -80.4187     1     -494.6227      -77.3535    23926   84.36%
   7875  3679        cutoff           -494.6227     -252.1614    32531   49.02%
   9309   542     -480.4781    22     -494.6227     -252.1614    36252   49.02%
  11796  1881     -253.1908    28     -494.6227     -252.1614    51925   49.02%
  14907  2651     -491.9470    29     -494.6227     -252.1614    59927   49.02%
  17788  3645     -282.4549    32     -494.6227     -261.2882    71293   47.17%
  19800  5224     -489.4631    24     -494.6227     -267.9667    94198   45.82%
  23138  5883     -391.6523    28     -494.6227     -274.3999   106993   44.52%
  26073  6849     -405.7822    42     -494.6227     -283.6546   125167   42.65%
  28980  7642     -460.7263    23     -494.6227     -288.5631   154468   41.66%
Elapsed time = 60.00 sec. (38901.78 ticks, tree = 62.02 MB, solutions = 6)
  32244  7974     -426.7195    26     -494.6227     -297.9134   165219   39.77%
  35649  9216     -439.7200    24     -494.6227     -302.9885   189955   38.74%
  38913  9966     -326.7711    25     -494.6227     -309.5975   205536   37.41%
  40717 11003     -446.1759    23     -494.6227     -315.2001   235857   36.27%
  43767 11487        cutoff           -494.6227     -321.7312   247426   34.95%
  46931 12284     -345.2139    28     -494.6227     -331.0479   284329   33.07%
  49947 12256     -456.8315    27     -494.6227     -336.8390   282310   31.90%
  53153 12699     -353.2499    28     -494.6227     -342.5827   306056   30.74%
  56269 12964     -427.2957    28     -494.6227     -346.2437   334286   30.00%
* 57580     0      integral     0     -494.6227     -494.6227   359666    0.00%
Elapsed time = 86.61 sec. (50159.09 ticks, tree = 0.01 MB, solutions = 6)

Clique cuts applied:  2
Cover cuts applied:  34
Implied bound cuts applied:  29
Flow cuts applied:  32
Mixed integer rounding cuts applied:  19
Gomory fractional cuts applied:  59

Root node processing (before b&c):
  Real time             =    7.78 sec. (4979.24 ticks)
Parallel b&c, 24 threads:
  Real time             =   78.84 sec. (45182.63 ticks)
  Sync time (average)   =    1.55 sec.
  Wait time (average)   =    0.06 sec.
                          ------------
Total (root+branch&cut) =   86.63 sec. (50161.87 ticks)

Solution pool: 6 solutions saved.

MIP - Integer optimal solution:  Objective = -4.9462267413e+02
Solution time =   86.63 sec.  Iterations = 359666  Nodes = 57580
Deterministic time = 50162.02 ticks  (579.07 ticks/sec)

CPLEX> Incumbent solution written to file 'C:\Users\Luke\Desktop\test919\logs\tmpg8c3lb9w.cplex.sol'.
CPLEX> NOTE: no warmstart specified for MIP iteration, default behavior is true
NOTE: resolving with all competitive generators using storage-only solution to warmstart
Solving...

Welcome to IBM(R) ILOG(R) CPLEX(R) Interactive Optimizer 12.9.0.0
  with Simplex, Mixed Integer & Barrier Optimizers
5725-A06 5725-A29 5724-Y48 5724-Y49 5724-Y54 5724-Y55 5655-Y21
Copyright IBM Corp. 1988, 2019.  All Rights Reserved.

Type 'help' for a list of available commands.
Type 'help' followed by a command name for more
information on commands.

CPLEX> Logfile 'cplex.log' closed.
Logfile 'C:\Users\Luke\Desktop\test919\logs\tmph1_gsjkn.cplex.log' open.
CPLEX> New value for parallel optimization mode: -1
CPLEX> New value for mixed integer optimality gap tolerance: 0.01
CPLEX> New value for integrality tolerance: 1e-09
CPLEX> New value for feasibility tolerance: 0.01
CPLEX> New value for deterministic time limit in ticks: 75000
CPLEX> Problem 'C:\Users\Luke\Desktop\test919\logs\tmpghod3ndg.pyomo.lp' read.
Read time = 0.20 sec. (14.75 ticks)
CPLEX> MIP start file 'C:\Users\Luke\Desktop\test919\logs\tmpbeep_3jc.cplex.mst' read.
CPLEX> Problem name         : C:\Users\Luke\Desktop\test919\logs\tmpghod3ndg.pyomo.lp
Objective sense      : Maximize
Variables            :   54525  [Nneg: 1,  Box: 22720,  Free: 4464,
                                 Binary: 27340]
Objective nonzeros   :    9800
Linear constraints   :  123205  [Less: 41346,  Greater: 59096,  Equal: 22763]
  Nonzeros           :  291707
  RHS nonzeros       :   67493

Variables            : Min LB: -5000.000        Max UB: 1000000.       
Objective nonzeros   : Min   : 0.01666667       Max   : 2500.000       
Linear constraints   :
  Nonzeros           : Min   : 0.01666667       Max   : 1000000.       
  RHS nonzeros       : Min   : 0.01666667       Max   : 1000000.       
CPLEX> CPXPARAM_Parallel                                -1
CPXPARAM_Simplex_Tolerances_Feasibility          0.01
CPXPARAM_DetTimeLimit                            75000
CPXPARAM_MIP_Tolerances_MIPGap                   0.01
CPXPARAM_MIP_Tolerances_Integrality              1.0000000000000001e-09
Warning:  No solution found from 1 MIP starts.
Retaining values of one MIP start for possible repair.
Tried aggregator 3 times.
MIP Presolve eliminated 88781 rows and 19850 columns.
MIP Presolve added 3343 rows and 0 columns.
MIP Presolve modified 24710 coefficients.
Aggregator did 12921 substitutions.
Reduced MIP has 24846 rows, 21199 columns, and 70818 nonzeros.
Reduced MIP has 8380 binaries, 0 generals, 0 SOSs, and 0 indicators.
Presolve time = 0.23 sec. (176.19 ticks)
Probing fixed 413 vars, tightened 2930 bounds.
Probing time = 1.44 sec. (891.11 ticks)
Tried aggregator 2 times.
MIP Presolve eliminated 933 rows and 826 columns.
MIP Presolve modified 2237 coefficients.
Aggregator did 37 substitutions.
Reduced MIP has 23876 rows, 20336 columns, and 68015 nonzeros.
Reduced MIP has 7967 binaries, 0 generals, 0 SOSs, and 0 indicators.
Presolve time = 0.09 sec. (66.94 ticks)
Probing time = 0.03 sec. (16.27 ticks)
Clique table members: 6166.
MIP emphasis: balance optimality and feasibility.
MIP search method: dynamic search.
Parallel mode: opportunistic, using up to 24 threads.
Root relaxation solution time = 0.47 sec. (637.87 ticks)

        Nodes                                         Cuts/
   Node  Left     Objective  IInf  Best Integer    Best Bound    ItCnt     Gap

      0     0      -23.3456   882                    -23.3456     4628         
      0     0      -23.4052     8                    Cuts: 11     4631         
      0     0      -23.4052     6                 Flowcuts: 5     4634         
      0     0      -23.4052     5                 Flowcuts: 2     4635         
Repair heuristic found nothing.
      0     2      -23.4052     5                     Cuts: 2     4635         
Elapsed time = 8.86 sec. (5139.99 ticks, tree = 0.02 MB, solutions = 0)
*   196    56      integral     0     -285.5343      -77.3535     7797   72.91%
    354    14      -77.3343     1     -258.3393      -77.3535    10576   70.06%
    486    21      -77.3343     1     -258.3393      -77.3535    10738   70.06%
    610    75        cutoff           -258.3393      -77.3535    11087   70.06%
    712    83        cutoff           -258.3393      -77.3535    11163   70.06%
    813   103      -77.3343     1     -258.3393      -77.3535    11286   70.06%
    903    91      -77.3343     1     -258.3393      -77.3535    11231   70.06%
    991   114      -77.3343     3     -258.3393      -77.3535    11385   70.06%
   1070   128        cutoff           -258.3393      -77.3535    11465   70.06%
   1439   165     -107.3298     2     -258.3393      -77.3535    11670   70.06%
Elapsed time = 13.31 sec. (8144.23 ticks, tree = 1.68 MB, solutions = 3)
   1945   338        cutoff           -258.3393      -77.3535    12322   70.06%
   2304   583        cutoff           -258.3393      -77.3535    13342   70.06%
   2750   695     -142.4540     1     -258.3393      -77.3535    13729   70.06%
   3147   950      -77.3343     1     -258.3393      -77.3535    14866   70.06%
   3693   975        cutoff           -258.3393      -77.3535    15092   70.06%
   4095  1315     -145.5384     4     -258.3393      -77.3535    16592   70.06%
   4636  1751     -145.5384     1     -258.3393      -77.3535    18162   70.06%
   5102  2074      -80.4187     3     -258.3393      -77.3535    19110   70.06%
   5458  2210        cutoff           -258.3393      -77.3535    19591   70.06%
   5822  2721        cutoff           -258.3393      -77.3535    21810   70.06%
Elapsed time = 24.66 sec. (17704.46 ticks, tree = 23.73 MB, solutions = 3)
   6086  2949     -141.3235     4     -258.3393      -77.3535    23152   70.06%
   6352  2906        cutoff           -258.3393      -77.3535    22807   70.06%
   6599  3111      -90.1676     3     -258.3393      -77.3535    25665   70.06%
   6902  3242        cutoff           -258.3393      -77.3535    27475   70.06%
   7165  3386        cutoff           -258.3393      -77.3535    29049   70.06%
   7471  3406        cutoff           -258.3393      -77.3535    29613   70.06%
   7594  3425      -82.7749     1     -258.3393      -77.3535    29542   70.06%

GUB cover cuts applied:  1
Clique cuts applied:  25
Cover cuts applied:  26
Implied bound cuts applied:  26
Flow cuts applied:  137
Mixed integer rounding cuts applied:  46
Gomory fractional cuts applied:  78

Root node processing (before b&c):
  Real time             =    8.11 sec. (5090.59 ticks)
Parallel b&c, 24 threads:
  Real time             =   24.89 sec. (21187.72 ticks)
  Sync time (average)   =    0.74 sec.
  Wait time (average)   =    0.00 sec.
                          ------------
Total (root+branch&cut) =   33.00 sec. (26278.31 ticks)

Solution pool: 3 solutions saved.

MIP - Integer optimal, tolerance (0.01/1e-06):  Objective = -2.5833928023e+02
Current MIP best bound = -2.5638830954e+02 (gap = 1.95097, 0.76%)
Solution time =   33.00 sec.  Iterations = 37862  Nodes = 7602 (3685)
Deterministic time = 26278.47 ticks  (796.32 ticks/sec)

CPLEX> Incumbent solution written to file 'C:\Users\Luke\Desktop\test919\logs\tmpm0muy729.cplex.sol'.
CPLEX> Exporting results... 
